Title "chair 7"
#nohup mpiexec -np 8 nwchem .nw > .out &
echo
start 7 

memory 10000 mb

permanent_dir ./7
scratch_dir   /usr/local/nw-scr

geometry
 C     1.786100     0.473400     0.186600
 H     2.894600     0.473400     0.186600
Cl     1.126100     2.086200     0.186600
 C     1.173700    -0.248300     1.354700
 H     1.386000     0.287100     2.304700
 H     1.678300    -1.223500     1.501500
 C    -0.314900    -0.481000     1.260700
 H    -0.676300    -1.090000     2.108800
 H    -0.870900     0.472200     1.375200
 C    -0.690400    -1.124200    -0.045800
Cl    -2.395200    -1.301100    -0.329200
 H    -0.314700    -2.178300    -0.067400
 C    -0.136100    -0.387200    -1.237900
 H    -0.368400    -0.919600    -2.181100
 H    -0.628800     0.595200    -1.374900
 C     1.362500    -0.187100    -1.150300
 H     1.742900     0.409200    -1.993500
 H     1.891600    -1.153300    -1.227700
end

basis
 * library 6-31G
end

dft
 xc b3lyp
end

driver
 MaxIter 150
end

task dft optimize ignore

freq
  temp 1 290 
end

task dft freq

property
 aimfile
 moldenfile
 molden_norm none
end

task dft property ignore

